Custom/6539906_13.param
$ LBS instance with n = 13, seed = 6539906
letting cards be [48,16,29,33,46,38,13,24,2,7,44,37,12]
